min: T; 


//Implementa a funcao objetivo 
T>=F[1];
T>=F[2];
T>=F[3];
T>=F[4];
T>=F[5];
T>=F[6];
T>=F[7];
T>=F[8];
T>=F[9];
T>=F[10];

 // Restricoes de precedencia 
I[3]>=F[10];
I[4]>=F[6];
I[4]>=F[7];
I[4]>=F[8];
I[4]>=F[10];
I[6]>=F[7];
I[8]>=F[10];

 // Implementa as restricoes de tempo 
F[1]-I[1]>=16;
F[2]-I[2]>=16;
F[3]-I[3]>=14;
F[4]-I[4]>=11;
F[5]-I[5]>=15;
F[6]-I[6]>=6;
F[7]-I[7]>=9;
F[8]-I[8]>=7;
F[9]-I[9]>=14;
F[10]-I[10]>=14;

 // Implementa as restricoes de nao colisao 
u[1][8] + u[8][1] >= 1;
122u[1][8]>= I[1]-F[8];
122-122u[1][8]>= F[8]-I[1];
122u[8][1]>= I[8]-F[1];
122-122u[8][1]>= F[1]-I[8];

u[1][10] + u[10][1] >= 1;
122u[1][10]>= I[1]-F[10];
122-122u[1][10]>= F[10]-I[1];
122u[10][1]>= I[10]-F[1];
122-122u[10][1]>= F[1]-I[10];

u[2][3] + u[3][2] >= 1;
122u[2][3]>= I[2]-F[3];
122-122u[2][3]>= F[3]-I[2];
122u[3][2]>= I[3]-F[2];
122-122u[3][2]>= F[2]-I[3];

u[2][6] + u[6][2] >= 1;
122u[2][6]>= I[2]-F[6];
122-122u[2][6]>= F[6]-I[2];
122u[6][2]>= I[6]-F[2];
122-122u[6][2]>= F[2]-I[6];

u[2][7] + u[7][2] >= 1;
122u[2][7]>= I[2]-F[7];
122-122u[2][7]>= F[7]-I[2];
122u[7][2]>= I[7]-F[2];
122-122u[7][2]>= F[2]-I[7];

u[3][6] + u[6][3] >= 1;
122u[3][6]>= I[3]-F[6];
122-122u[3][6]>= F[6]-I[3];
122u[6][3]>= I[6]-F[3];
122-122u[6][3]>= F[3]-I[6];

u[3][7] + u[7][3] >= 1;
122u[3][7]>= I[3]-F[7];
122-122u[3][7]>= F[7]-I[3];
122u[7][3]>= I[7]-F[3];
122-122u[7][3]>= F[3]-I[7];


 // Implementa as restricoes de variaveis binarias
bin u[1][8];
bin u[8][1];
bin u[1][10];
bin u[10][1];
bin u[2][3];
bin u[3][2];
bin u[2][6];
bin u[6][2];
bin u[2][7];
bin u[7][2];
bin u[3][6];
bin u[6][3];
bin u[3][7];
bin u[7][3];
bin u[6][7];
bin u[7][6];
bin u[8][10];
bin u[10][8];
